Optimize a model with 401 rows, 440 columns and 2508 nonzeros
Model has 1 quadratic constraint
Coefficient statistics:
  Matrix range    [1e+00, 2e+01]
  Objective range [1e+02, 7e+02]
  Bounds range    [1e+00, 2e+01]
  RHS range       [1e+00, 2e+01]
Presolve removed 0 rows and 22 columns
Presolve time: 0.02s
Presolved: 763 rows, 779 columns, 3952 nonzeros
Variable types: 0 continuous, 779 integer (760 binary)

Root relaxation: objective 3.600000e+02, 34 iterations, 0.00 seconds

    Nodes    |    Current Node    |     Objective Bounds      |     Work
 Expl Unexpl |  Obj  Depth IntInf | Incumbent    BestBd   Gap | It/Node Time

     0     0  360.00000    0   17          -  360.00000      -     -    0s
     0     0  360.00000    0   18          -  360.00000      -     -    0s
     0     0  360.00000    0   18          -  360.00000      -     -    0s
     0     0  360.00000    0   18          -  360.00000      -     -    0s
H    0     0                    4793.0000000  360.00000  92.5%     -    0s
     0     2  360.00000    0   18 4793.00000  360.00000  92.5%     -    0s
H  324   324                    2768.0000000  408.00000  85.3%   2.2    0s
H  512   440                    2559.0000000 1281.13616  49.9%   3.2    0s
H  512   418                    1392.0000000 1281.13616  7.96%   3.2    0s
*  563   391              16    1372.0000000 1333.84025  2.78%   3.5    0s

Explored 575 nodes (2326 simplex iterations) in 0.74 seconds
Thread count was 1 (of 4 available processors)

Optimal solution found (tolerance 1.00e-04)
Best objective 1.372000000000e+03, best bound 1.372000000000e+03, gap 0.0%
1372
(11,0) (0,15) (2,12) (17,2) (3,14) (18,3) (10,11) (12,10) (14,17) (15,16) (16,18) 
